(declare-const a Real)
(declare-const b Real)
(declare-const c Real)
(assert (= (* a b c) 1))
(assert (> a 0))
(assert (> b 0))
(assert (> c 0))
(assert (not (<= (+ (* -1802032 (pow b 4)) (* -1390384 (pow a 4)) (* 34686 (pow (+ a b) 4)) (* -5308416 (pow a (/ 4 3)) (pow b (/ 8 3))) (* 1791808 b (pow a 3)) (* 6154048 a (pow b 3))) 0)))
(check-sat)
(get-model)
(exit)